
  17    4
  10   10   10   10

   0   0   0   0   0   3 2 4 7 
   3  10  10  10  10   1 3 
   5  10  10  10  10   3 12 8 5 
  10  10  10  10  10   2 10 6 
   6  10  10  10  10   4 14 11 10 9 
   6  10  10  10  10   4 16 15 14 9 
   9  10  10  10  10   4 16 15 14 9 
   7  10  10  10  10   3 16 14 9 
   7  10  10  10  10   1 13 
   7  10  10  10  10   1 13 
   7  10  10  10  10   1 15 
   1  10  10  10  10   1 14 
   9  10  10  10  10   1 17
  10  10  10  10  10   1 17
  10  10  10  10  10   1 17
   1  10  10  10  10   1 17
   0   0   0   0   0   0 
